 vasp.5.4.4.18Apr17-6-g9f103f2a35 (build Jul 10 2018 00:17:35) complex

 executed on             LinuxIFC date 2022.11.03  09:14:38

 INCAR:
 POTCAR:    PAW_PBE Pd 05Jan2001

 POTCAR:    PAW_PBE Pd 05Jan2001
   VRHFIN =Pd : s1 d9

   TITEL  = PAW_PBE Pd 05Jan2001
   POMASS =  106.420; ZVAL   =   10.000    mass and valenz
   ENMAX  =  250.925; ENMIN  =  188.194 eV
   QCUT   =   -4.294; QGAM   =    8.589    optimization parameters

   Description
     l     E      TYP  RCUT    TYP  RCUT
     2    -6.69     23  2.400
     2    -8.05     23  2.400
     0    -4.35     23  2.400
     0     4.34     23  2.400
     1    -2.72     23  2.400
     1    15.84     23  2.400

  PAW_PBE Pd 05Jan2001                  :

 POSCAR: Pd
  positions in cartesian coordinates
 exchange correlation table for  LEXCH =        8
   RHO(1)=    0.500       N(1)  =     2000
   RHO(2)=  100.500       N(2)  =     4000

 ion  position               nearest neighbor table
   1  0.000  0.000  0.000-   2 2.86   3 2.86   4 2.86   2 2.86   3 2.86   4 2.86   3 2.86   4 2.86
                             2 2.86   4 2.86   3 2.86   2 2.86
   2  0.000  0.500  0.500-   1 2.86   3 2.86   4 2.86   1 2.86   4 2.86   3 2.86   1 2.86   4 2.86
                             3 2.86   4 2.86   1 2.86   3 2.86
   3  0.500  0.000  0.500-   1 2.86   4 2.86   2 2.86   1 2.86   4 2.86   2 2.86   2 2.86   4 2.86
                             1 2.86   2 2.86   1 2.86   4 2.86
   4  0.500  0.500  0.000-   1 2.86   2 2.86   3 2.86   2 2.86   3 2.86   1 2.86   2 2.86   3 2.86
                             1 2.86   3 2.86   1 2.86   2 2.86

IMPORTANT INFORMATION: All symmetrisations will be switched off!
NOSYMM: (Re-)initialisation of all symmetry stuff for point group C_1.

 KPOINTS: KPOINTS created by Atomic Simulation Env

Automatic generation of k-mesh.
Space group operators:
 irot       det(A)        alpha          n_x          n_y          n_z        tau_x        tau_y        tau_z
    1     1.000000     0.000000     1.000000     0.000000     0.000000     0.000000     0.000000     0.000000

 Subroutine IBZKPT returns following result:

 Found    172 irreducible k-points:

 Following reciprocal coordinates:
            Coordinates               Weight
  0.000000  0.000000  0.000000      1.000000
  0.142857  0.000000 -0.000000      2.000000
  0.285714  0.000000 -0.000000      2.000000
  0.428571 -0.000000 -0.000000      2.000000
  0.000000  0.142857 -0.000000      2.000000
  0.142857  0.142857  0.000000      2.000000
  0.285714  0.142857 -0.000000      2.000000
  0.428571  0.142857 -0.000000      2.000000
 -0.428571  0.142857  0.000000      2.000000
 -0.285714  0.142857  0.000000      2.000000
 -0.142857  0.142857  0.000000      2.000000
  0.000000  0.285714 -0.000000      2.000000
  0.142857  0.285714 -0.000000      2.000000
  0.285714  0.285714  0.000000      2.000000
  0.428571  0.285714 -0.000000      2.000000
 -0.428571  0.285714  0.000000      2.000000
 -0.285714  0.285714 -0.000000      2.000000
 -0.142857  0.285714  0.000000      2.000000
  0.000000  0.428571 -0.000000      2.000000
  0.142857  0.428571 -0.000000      2.000000
  0.285714  0.428571  0.000000      2.000000
  0.428571  0.428571 -0.000000      2.000000
 -0.428571  0.428571  0.000000      2.000000
 -0.285714  0.428571 -0.000000      2.000000
 -0.142857  0.428571 -0.000000      2.000000
  0.000000  0.000000  0.142857      2.000000
  0.142857  0.000000  0.142857      2.000000
  0.285714  0.000000  0.142857      2.000000
  0.428571 -0.000000  0.142857      2.000000
 -0.428571  0.000000  0.142857      2.000000
 -0.285714 -0.000000  0.142857      2.000000
 -0.142857  0.000000  0.142857      2.000000
  0.000000  0.142857  0.142857      2.000000
  0.142857  0.142857  0.142857      2.000000
  0.285714  0.142857  0.142857      2.000000
  0.428571  0.142857  0.142857      2.000000
 -0.428571  0.142857  0.142857      2.000000
 -0.285714  0.142857  0.142857      2.000000
 -0.142857  0.142857  0.142857      2.000000
  0.000000  0.285714  0.142857      2.000000
  0.142857  0.285714  0.142857      2.000000
  0.285714  0.285714  0.142857      2.000000
  0.428571  0.285714  0.142857      2.000000
 -0.428571  0.285714  0.142857      2.000000
 -0.285714  0.285714  0.142857      2.000000
 -0.142857  0.285714  0.142857      2.000000
  0.000000  0.428571  0.142857      2.000000
  0.142857  0.428571  0.142857      2.000000
  0.285714  0.428571  0.142857      2.000000
  0.428571  0.428571  0.142857      2.000000
 -0.428571  0.428571  0.142857      2.000000
 -0.285714  0.428571  0.142857      2.000000
 -0.142857  0.428571  0.142857      2.000000
  0.000000 -0.428571  0.142857      2.000000
  0.142857 -0.428571  0.142857      2.000000
  0.285714 -0.428571  0.142857      2.000000
  0.428571 -0.428571  0.142857      2.000000
 -0.428571 -0.428571  0.142857      2.000000
 -0.285714 -0.428571  0.142857      2.000000
 -0.142857 -0.428571  0.142857      2.000000
[...]
 -0.142857 -0.428571  0.428571      2.000000
  0.000000 -0.285714  0.428571      2.000000
  0.142857 -0.285714  0.428571      2.000000
  0.285714 -0.285714  0.428571      2.000000
  0.428571 -0.285714  0.428571      2.000000
 -0.428571 -0.285714  0.428571      2.000000
 -0.285714 -0.285714  0.428571      2.000000
 -0.142857 -0.285714  0.428571      2.000000
  0.000000 -0.142857  0.428571      2.000000
  0.142857 -0.142857  0.428571      2.000000
  0.285714 -0.142857  0.428571      2.000000
  0.428571 -0.142857  0.428571      2.000000
 -0.428571 -0.142857  0.428571      2.000000
 -0.285714 -0.142857  0.428571      2.000000
 -0.142857 -0.142857  0.428571      2.000000

 Following cartesian coordinates:
            Coordinates               Weight
  0.000000  0.000000  0.000000      1.000000
  0.035305  0.000000  0.000000      2.000000
  0.070611  0.000000  0.000000      2.000000
  0.105916  0.000000  0.000000      2.000000
  0.000000  0.035305  0.000000      2.000000
  0.035305  0.035305  0.000000      2.000000
  0.070611  0.035305  0.000000      2.000000
  0.105916  0.035305  0.000000      2.000000
 -0.105916  0.035305 -0.000000      2.000000
 -0.070611  0.035305 -0.000000      2.000000
 -0.035305  0.035305 -0.000000      2.000000
  0.000000  0.070611  0.000000      2.000000
  0.035305  0.070611  0.000000      2.000000
  0.070611  0.070611  0.000000      2.000000
  0.105916  0.070611  0.000000      2.000000
 -0.105916  0.070611 -0.000000      2.000000
 -0.070611  0.070611 -0.000000      2.000000
 -0.035305  0.070611  0.000000      2.000000
  0.000000  0.105916  0.000000      2.000000
  0.035305  0.105916  0.000000      2.000000
  0.070611  0.105916  0.000000      2.000000
  0.105916  0.105916  0.000000      2.000000
 -0.105916  0.105916 -0.000000      2.000000
 -0.070611  0.105916  0.000000      2.000000
 -0.035305  0.105916  0.000000      2.000000
  0.000000  0.000000  0.035305      2.000000
  0.035305  0.000000  0.035305      2.000000
  0.070611  0.000000  0.035305      2.000000
  0.105916  0.000000  0.035305      2.000000
 -0.105916 -0.000000  0.035305      2.000000
 -0.070611 -0.000000  0.035305      2.000000
 -0.035305 -0.000000  0.035305      2.000000
  0.000000  0.035305  0.035305      2.000000
  0.035305  0.035305  0.035305      2.000000
  0.070611  0.035305  0.035305      2.000000
  0.105916  0.035305  0.035305      2.000000
 -0.105916  0.035305  0.035305      2.000000
 -0.070611  0.035305  0.035305      2.000000
 -0.035305  0.035305  0.035305      2.000000
  0.000000  0.070611  0.035305      2.000000
  0.035305  0.070611  0.035305      2.000000
  0.070611  0.070611  0.035305      2.000000
  0.105916  0.070611  0.035305      2.000000
 -0.105916  0.070611  0.035305      2.000000
 -0.070611  0.070611  0.035305      2.000000
 -0.035305  0.070611  0.035305      2.000000
  0.000000  0.105916  0.035305      2.000000
  0.035305  0.105916  0.035305      2.000000
  0.070611  0.105916  0.035305      2.000000
  0.105916  0.105916  0.035305      2.000000
 -0.105916  0.105916  0.035305      2.000000
 -0.070611  0.105916  0.035305      2.000000
 -0.035305  0.105916  0.035305      2.000000
  0.000000 -0.105916  0.035305      2.000000
  0.035305 -0.105916  0.035305      2.000000
  0.070611 -0.105916  0.035305      2.000000
  0.105916 -0.105916  0.035305      2.000000
 -0.105916 -0.105916  0.035305      2.000000
 -0.070611 -0.105916  0.035305      2.000000
 -0.035305 -0.105916  0.035305      2.000000
[...]
 -0.035305 -0.105916  0.105916      2.000000
  0.000000 -0.070611  0.105916      2.000000
  0.035305 -0.070611  0.105916      2.000000
  0.070611 -0.070611  0.105916      2.000000
  0.105916 -0.070611  0.105916      2.000000
 -0.105916 -0.070611  0.105916      2.000000
 -0.070611 -0.070611  0.105916      2.000000
 -0.035305 -0.070611  0.105916      2.000000
  0.000000 -0.035305  0.105916      2.000000
  0.035305 -0.035305  0.105916      2.000000
  0.070611 -0.035305  0.105916      2.000000
  0.105916 -0.035305  0.105916      2.000000
 -0.105916 -0.035305  0.105916      2.000000
 -0.070611 -0.035305  0.105916      2.000000
 -0.035305 -0.035305  0.105916      2.000000

 SYSTEM =  unknown system
 POSCAR =  Pd

 Startparameter for this run:
   NWRITE =      2    write-flag & timer
   PREC   = accura    normal or accurate (medium, high low for compatibility)
   ISTART =      1    job   : 0-new  1-cont  2-samecut
   ICHARG =      0    charge: 1-file 2-atom 10-const
   ISPIN  =      2    spin polarized calculation?
   LNONCOLLINEAR =      F non collinear calculations
   LSORBIT =      F    spin-orbit coupling
   INIWAV =      1    electr: 0-lowe 1-rand  2-diag
   LASPH  =      F    aspherical Exc in radial PAW
   METAGGA=      F    non-selfconsistent MetaGGA calc.

 Electronic Relaxation 1
   ENCUT  =  500.0 eV  36.75 Ry    6.06 a.u.   7.38  7.38  7.38*2*pi/ulx,y,z
   ENINI  =  500.0     initial cutoff
   ENAUG  =  416.2 eV  augmentation charge cutoff
   NELM   =     60;   NELMIN=  2; NELMDL=  0     # of ELM steps
   EDIFF  = 0.1E-07   stopping-criterion for ELM
   LREAL  =      F    real-space projection
   NLSPLINE    = F    spline interpolate recip. space projectors
   LCOMPAT=      F    compatible to vasp.4.4
   GGA_COMPAT  = T    GGA compatible to vasp.4.4-vasp.4.6
   LMAXPAW     = -100 max onsite density
   LMAXMIX     =    2 max onsite mixed and CHGCAR
   VOSKOWN=      0    Vosko Wilk Nusair interpolation
   ROPT   =    0.00000
 Ionic relaxation
   EDIFFG = 0.1E-06   stopping-criterion for IOM
   NSW    =      0    number of steps for IOM
   NBLOCK =      1;   KBLOCK =      1    inner block; outer block
   IBRION =     -1    ionic relax: 0-MD 1-quasi-New 2-CG
   NFREE  =      0    steps in history (QN), initial steepest desc. (CG)
   ISIF   =      2    stress and relaxation
   IWAVPR =     10    prediction:  0-non 1-charg 2-wave 3-comb
   ISYM   =      0    0-nonsym 1-usesym 2-fastsym
   LCORR  =      T    Harris-Foulkes like correction to forces

   POTIM  = 0.5000    time-step for ionic-motion
   TEIN   =    0.0    initial temperature
   TEBEG  =    0.0;   TEEND  =   0.0 temperature during run
   SMASS  =  -3.00    Nose mass-parameter (am)
   estimated Nose-frequenzy (Omega)   =  0.10E-29 period in steps =****** mass=  -0.374E-27a.u.
[...]
 k-point 53 :  -0.1429 0.4286 0.1429  plane waves:    1689
 k-point 54 :   0.0000-0.4286 0.1429  plane waves:    1678
 k-point 55 :   0.1429-0.4286 0.1429  plane waves:    1689
 k-point 56 :   0.2857-0.4286 0.1429  plane waves:    1675
 k-point 57 :   0.4286-0.4286 0.1429  plane waves:    1683
 k-point 58 :  -0.4286-0.4286 0.1429  plane waves:    1683
 k-point 59 :  -0.2857-0.4286 0.1429  plane waves:    1675
 k-point 60 :  -0.1429-0.4286 0.1429  plane waves:    1689
[...]
 k-point 85 :   0.4286 0.1429 0.2857  plane waves:    1675
 k-point 86 :  -0.4286 0.1429 0.2857  plane waves:    1675
 k-point 87 :  -0.2857 0.1429 0.2857  plane waves:    1669
 k-point 88 :  -0.1429 0.1429 0.2857  plane waves:    1687
 k-point 89 :   0.0000 0.2857 0.2857  plane waves:    1678
 k-point 90 :   0.1429 0.2857 0.2857  plane waves:    1669
 k-point 91 :   0.2857 0.2857 0.2857  plane waves:    1688
 k-point 92 :   0.4286 0.2857 0.2857  plane waves:    1682
 k-point 93 :  -0.4286 0.2857 0.2857  plane waves:    1682
 k-point 94 :  -0.2857 0.2857 0.2857  plane waves:    1688
 k-point 95 :  -0.1429 0.2857 0.2857  plane waves:    1669
 k-point 96 :   0.0000 0.4286 0.2857  plane waves:    1676
 k-point 97 :   0.1429 0.4286 0.2857  plane waves:    1675
 k-point 98 :   0.2857 0.4286 0.2857  plane waves:    1682
 k-point 99 :   0.4286 0.4286 0.2857  plane waves:    1683
 k-point ** :  -0.4286 0.4286 0.2857  plane waves:    1683
 k-point ** :  -0.2857 0.4286 0.2857  plane waves:    1682
 k-point ** :  -0.1429 0.4286 0.2857  plane waves:    1675
 k-point ** :   0.0000-0.4286 0.2857  plane waves:    1676
 k-point ** :   0.1429-0.4286 0.2857  plane waves:    1675
 k-point ** :   0.2857-0.4286 0.2857  plane waves:    1682
 k-point ** :   0.4286-0.4286 0.2857  plane waves:    1683
 k-point ** :  -0.4286-0.4286 0.2857  plane waves:    1683
 k-point ** :  -0.2857-0.4286 0.2857  plane waves:    1682
 k-point ** :  -0.1429-0.4286 0.2857  plane waves:    1675
 k-point ** :   0.0000-0.2857 0.2857  plane waves:    1678
 k-point ** :   0.1429-0.2857 0.2857  plane waves:    1669
 k-point ** :   0.2857-0.2857 0.2857  plane waves:    1688
 k-point ** :   0.4286-0.2857 0.2857  plane waves:    1682
 k-point ** :  -0.4286-0.2857 0.2857  plane waves:    1682
 k-point ** :  -0.2857-0.2857 0.2857  plane waves:    1688
 k-point ** :  -0.1429-0.2857 0.2857  plane waves:    1669
 k-point ** :   0.0000-0.1429 0.2857  plane waves:    1702
 k-point ** :   0.1429-0.1429 0.2857  plane waves:    1687
 k-point ** :   0.2857-0.1429 0.2857  plane waves:    1669
 k-point ** :   0.4286-0.1429 0.2857  plane waves:    1675
 k-point ** :  -0.4286-0.1429 0.2857  plane waves:    1675
 k-point ** :  -0.2857-0.1429 0.2857  plane waves:    1669
 k-point ** :  -0.1429-0.1429 0.2857  plane waves:    1687
 k-point ** :   0.0000 0.0000 0.4286  plane waves:    1678
 k-point ** :   0.1429 0.0000 0.4286  plane waves:    1678
 k-point ** :   0.2857 0.0000 0.4286  plane waves:    1676
 k-point ** :   0.4286-0.0000 0.4286  plane waves:    1672
 k-point ** :  -0.4286 0.0000 0.4286  plane waves:    1672
 k-point ** :  -0.2857-0.0000 0.4286  plane waves:    1676
 k-point ** :  -0.1429 0.0000 0.4286  plane waves:    1678
 k-point ** :   0.0000 0.1429 0.4286  plane waves:    1678
 k-point ** :   0.1429 0.1429 0.4286  plane waves:    1689
 k-point ** :   0.2857 0.1429 0.4286  plane waves:    1675
 k-point ** :   0.4286 0.1429 0.4286  plane waves:    1683
 k-point ** :  -0.4286 0.1429 0.4286  plane waves:    1683
 k-point ** :  -0.2857 0.1429 0.4286  plane waves:    1675
 k-point ** :  -0.1429 0.1429 0.4286  plane waves:    1689
 k-point ** :   0.0000 0.2857 0.4286  plane waves:    1676
 k-point ** :   0.1429 0.2857 0.4286  plane waves:    1675
 k-point ** :   0.2857 0.2857 0.4286  plane waves:    1682
 k-point ** :   0.4286 0.2857 0.4286  plane waves:    1683
 k-point ** :  -0.4286 0.2857 0.4286  plane waves:    1683
 k-point ** :  -0.2857 0.2857 0.4286  plane waves:    1682
 k-point ** :  -0.1429 0.2857 0.4286  plane waves:    1675
 k-point ** :   0.0000 0.4286 0.4286  plane waves:    1672
 k-point ** :   0.1429 0.4286 0.4286  plane waves:    1683
 k-point ** :   0.2857 0.4286 0.4286  plane waves:    1683
 k-point ** :   0.4286 0.4286 0.4286  plane waves:    1679
 k-point ** :  -0.4286 0.4286 0.4286  plane waves:    1679
 k-point ** :  -0.2857 0.4286 0.4286  plane waves:    1683
 k-point ** :  -0.1429 0.4286 0.4286  plane waves:    1683
 k-point ** :   0.0000-0.4286 0.4286  plane waves:    1672
 k-point ** :   0.1429-0.4286 0.4286  plane waves:    1683
 k-point ** :   0.2857-0.4286 0.4286  plane waves:    1683
 k-point ** :   0.4286-0.4286 0.4286  plane waves:    1679
 k-point ** :  -0.4286-0.4286 0.4286  plane waves:    1679
 k-point ** :  -0.2857-0.4286 0.4286  plane waves:    1683
 k-point ** :  -0.1429-0.4286 0.4286  plane waves:    1683
 k-point ** :   0.0000-0.2857 0.4286  plane waves:    1676
 k-point ** :   0.1429-0.2857 0.4286  plane waves:    1675
 k-point ** :   0.2857-0.2857 0.4286  plane waves:    1682
 k-point ** :   0.4286-0.2857 0.4286  plane waves:    1683
 k-point ** :  -0.4286-0.2857 0.4286  plane waves:    1683
 k-point ** :  -0.2857-0.2857 0.4286  plane waves:    1682
 k-point ** :  -0.1429-0.2857 0.4286  plane waves:    1675
 k-point ** :   0.0000-0.1429 0.4286  plane waves:    1678
 k-point ** :   0.1429-0.1429 0.4286  plane waves:    1689
 k-point ** :   0.2857-0.1429 0.4286  plane waves:    1675
 k-point ** :   0.4286-0.1429 0.4286  plane waves:    1683
 k-point ** :  -0.4286-0.1429 0.4286  plane waves:    1683
 k-point ** :  -0.2857-0.1429 0.4286  plane waves:    1675
 k-point ** :  -0.1429-0.1429 0.4286  plane waves:    1689

 maximum and minimum number of plane-waves per node :      1743     1669

 maximum number of plane-waves:      1743
 maximum index in each direction:
   IXMAX=    7   IYMAX=    7   IZMAX=    7
   IXMIN=   -7   IYMIN=   -7   IZMIN=   -7

 serial   3D FFT for wavefunctions
 parallel 3D FFT for charge:
    minimum data exchange during FFTs selected (reduces bandwidth)

 Broyden mixing: mesh for mixing (old mesh)
   NGX = 15   NGY = 15   NGZ = 15
  (NGX  = 60   NGY  = 60   NGZ  = 60)
  gives a total of   3375 points

 charge density for first step will be calculated from the start-wavefunctions

 Maximum index for augmentation-charges         4434 (set IRDMAX)

 initial charge from wavefunction
 First call to EWALD:  gamma=   0.438
 Maximum number of real-space cells 3x 3x 3
 Maximum number of reciprocal cells 3x 3x 3

--------------------------------------- Iteration      1(   1)  ---------------------------------------

 eigenvalue-minimisations  : 33440
 total energy-change (2. order) :-0.4007482E+02  (-0.3075814E+02)
 number of electron      40.0000002 magnetization      -0.0000000
 augmentation part       20.7657462 magnetization      -0.0000000

 Broyden mixing:
  rms(total) = 0.50712E+01    rms(broyden)= 0.50711E+01
  rms(prec ) = 0.77047E+01
  weight for this iteration     100.00

 Free energy of the ion-electron system (eV)
  alpha Z        PSCENC =       328.81131332
  Ewald energy   TEWEN  =     -3263.25689648
  -Hartree energ DENC   =      -394.20585572
  -exchange      EXHF   =         0.00000000
  -V(xc)+E(xc)   XCENC  =      -121.84476461
  PAW double counting   =      3544.13079987    -3300.68355761
  entropy T*S    EENTRO =        -0.12346615
  eigenvalues    EBANDS =       -71.89559968
  atomic energy  EATOM  =      3238.99320840
  Solvation  Ediel_sol  =         0.00000000
  free energy    TOTEN  =       -40.07481867 eV

  energy without entropy =      -39.95135251  energy(sigma->0) =      -40.01308559

[...]

 eigenvalue-minimisations  : 27760
 total energy-change (2. order) : 0.1946178E+02  (-0.4672722E+01)
 number of electron      40.0000002 magnetization      -0.0000000
 augmentation part       16.8313642 magnetization       0.0000000

[...]

 eigenvalues of (default mixing * dielectric matrix)
  average eigenvalue GAMMA=   0.6469
  0.6469

[...]

 eigenvalue-minimisations  : 24544
 total energy-change (2. order) : 0.2322804E-07  (-0.3026768E-09)
 number of electron      40.0000002 magnetization       0.0000000
 augmentation part       16.9369645 magnetization       0.0000000

 Broyden mixing:
  rms(total) = 0.68956E-05    rms(broyden)= 0.68954E-05
  rms(prec ) = 0.98569E-05
  weight for this iteration     100.00

 eigenvalues of (default mixing * dielectric matrix)
  average eigenvalue GAMMA=   1.2812
  2.7998  2.4162  2.4162  1.1629  1.0388  0.9149  0.9149  0.9610  0.9610  0.2514
  0.2556

[...]

--------------------------------------- Iteration      1(  13)  ---------------------------------------

 eigenvalue-minimisations  : 21842
 total energy-change (2. order) :-0.3057721E-08  (-0.8787992E-10)
 number of electron      40.0000002 magnetization       0.0000000
 augmentation part       16.9369645 magnetization       0.0000000

 Free energy of the ion-electron system (eV)
  alpha Z        PSCENC =       328.81131332
  Ewald energy   TEWEN  =     -3263.25689648
  -Hartree energ DENC   =      -509.25446008
  -exchange      EXHF   =         0.00000000
  -V(xc)+E(xc)   XCENC  =      -118.98689409
  PAW double counting   =      3486.69201029    -3243.34912719
  entropy T*S    EENTRO =        -0.21461050
  eigenvalues    EBANDS =        59.89833729
  atomic energy  EATOM  =      3238.99320840
  Solvation  Ediel_sol  =         0.00000000
  free energy    TOTEN  =       -20.66711904 eV

  energy without entropy =      -20.45250854  energy(sigma->0) =      -20.55981379

 average (electrostatic) potential at core
  the test charge radii are     1.1199
  (the norm of the test charge is              1.0000)
       1 -47.7050       2 -47.7050       3 -47.7050       4 -47.7050

 E-fermi :   3.6820     XC(G=0): -12.4702     alpha+bet :-10.5637

 spin component 1

 k-point     1 :       0.0000    0.0000    0.0000
  band No.  band energies     occupation
      1      -2.6278      1.00000
      2      -0.8242      1.00000
      3      -0.8242      1.00000
      4      -0.8242      1.00000
      5      -0.5848      1.00000
      6      -0.5848      1.00000
      7      -0.5848      1.00000
      8       1.3065      1.00000
      9       1.3065      1.00000
     10       1.3065      1.00000
     11       2.6402      1.00000
     12       2.6402      1.00000
     13       3.6071      0.70194
     14       3.6071      0.70194
     15       3.6071      0.70194
     16       3.8873      0.07335
     17       3.8873      0.07335
     18       3.8873      0.07335
     19       3.8873      0.07335
     20       3.8873      0.07335
     21       3.8873      0.07335
     22       7.0476      0.00000
     23       7.0476      0.00000
     24       7.0476      0.00000
     25      13.2859      0.00000
     26      13.2859      0.00000
     27      13.2859      0.00000
     28      16.4430      0.00000
     29      16.4430      0.00000
     30      16.4430      0.00000
     31      16.4430      0.00000
     32      16.4430      0.00000
     33      16.4430      0.00000
     34      26.0197      0.00000
     35      26.0197      0.00000
     36      26.0197      0.00000
     37      26.0197      0.00000
     38      26.0210      0.00000
     39      26.0210      0.00000
     40      26.0210      0.00000

[...]

 spin component 2

[...]

 k-point   172 :      -0.1429   -0.1429    0.4286
  band No.  band energies     occupation
      1      -0.6803      1.00000
      2      -0.2308      1.00000
      3       0.1804      1.00000
      4       0.1804      1.00000
      5       0.3519      1.00000
      6       0.4972      1.00000
      7       0.4972      1.00000
      8       0.6799      1.00000
      9       1.2550      1.00000
     10       1.2550      1.00000
     11       1.5743      1.00000
     12       1.6615      1.00000
     13       1.9160      1.00000
     14       2.2979      1.00000
     15       2.5609      1.00000
     16       2.5609      1.00000
     17       2.7954      1.00000
     18       3.1159      0.99997
     19       3.4243      0.96579
     20       3.6194      0.67115
     21       3.6194      0.67114
     22       3.8025      0.19722
     23       9.6730      0.00000
     24       9.6730      0.00000
     25      11.1994      0.00000
     26      11.1994      0.00000
     27      15.6084      0.00000
     28      15.6084      0.00000
     29      16.6737      0.00000
     30      16.7231      0.00000
     31      16.7231      0.00000
     32      18.1445      0.00000
     33      20.3493      0.00000
     34      20.6003      0.00000
     35      26.0148      0.00000
     36      26.0199      0.00000
     37      26.0207      0.00000
     38      26.0208      0.00000
     39      26.0208      0.00000
     40      26.0208      0.00000

 soft charge-density along one line, spin component           1
         0         1         2         3         4         5         6         7         8         9
 total charge-density along one line

 soft charge-density along one line, spin component           2
         0         1         2         3         4         5         6         7         8         9
 total charge-density along one line

------------------------ aborting loop because EDIFF is reached ----------------------------------------

         DFTD3 V3.0 Rev 1
 IVDW         = 11
 DF pbe
 parameters
 VDW_S6       =    1.0000
 VDW_S8       =    0.7220
 VDW_SR       =    1.2170
 rs18     =    1.0000
 alpha6   =   14.0000
 alpha8   =   16.0000
 k1-k3    =   16.0000    1.3333   -4.0000
 VDW_RADIUS   =   50.2022 A
 VDW_CNRADIUS =   21.1671 A
 Edisp (eV)   -2.03716

 E6    (eV) :    -0.8980
 E8    (eV) :    -1.1392
 % E8        : 55.92

  FORCE on cell =-STRESS in cart. coord.  units (eV):
  Direction    XX          YY          ZZ          XY          YZ          ZX
  Alpha Z   328.81131   328.81131   328.81131
  Ewald   -1087.75278 -1087.75278 -1087.75278     0.00000     0.00000     0.00000
  Hartree   169.75140   169.75140   169.75140     0.00000    -0.00000     0.00000
  E(xc)    -208.69927  -208.69927  -208.69927    -0.00000     0.00000    -0.00000
  Local     295.47831   295.47831   295.47831    -0.00000     0.00000    -0.00000
  n-local  -215.55410  -215.55410  -215.55410     0.00000    -0.00000     0.00000
  augment   172.18449   172.18449   172.18449     0.00000     0.00000     0.00000
  Kinetic   541.99616   541.99616   541.99616     0.00000    -0.00000    -0.00000
  Fock        0.00000     0.00000     0.00000     0.00000     0.00000     0.00000
  vdW        -2.48610    -2.48610    -2.48610    -0.00000    -0.00000    -0.00000
  Total      -6.27056    -6.27056    -6.27056     0.00000     0.00000     0.00000
  in kB    -151.64700  -151.64704  -151.64702     0.00000     0.00001     0.00001

 VOLUME and BASIS-vectors are now :
  energy-cutoff  :      500.00
  volume of cell :       66.25
      direct lattice vectors                 reciprocal lattice vectors
     4.046328000  0.000000000  0.000000000     0.247137652  0.000000000  0.000000000
    -0.000000000  4.046328000  0.000000000     0.000000000  0.247137652  0.000000000
    -0.000000000 -0.000000000  4.046328000     0.000000000  0.000000000  0.247137652

  length of vectors
     4.046328000  4.046328000  4.046328000     0.247137652  0.247137652  0.247137652

 FORCES acting on ions
    electron-ion (+dipol)            ewald-force                    non-local-force                 convergence-correction
   -.559E-06 -.163E-05 -.360E-05   0.274E-07 0.137E-07 0.769E-13   -.429E-06 -.451E-05 -.869E-05   0.466E-06 0.460E-05 0.880E-05
   -.359E-05 -.125E-05 0.901E-06   -.274E-07 -.137E-07 -.798E-13   -.684E-05 -.360E-05 0.245E-05   0.763E-05 0.367E-05 -.198E-05
   0.354E-05 -.887E-06 0.487E-05   -.295E-13 -.137E-07 -.757E-13   0.783E-05 -.256E-05 0.911E-05   -.831E-05 0.266E-05 -.103E-04
   0.347E-05 -.154E-05 -.445E-05   0.194E-13 0.137E-07 0.778E-13   0.816E-05 -.448E-05 -.998E-05   -.841E-05 0.449E-05 0.105E-04
   0.286E-05 -.530E-05 -.228E-05   -.876E-15 0.355E-14 -.821E-15   0.872E-05 -.151E-04 -.711E-05   -.863E-05 0.154E-04 0.701E-05

 POSITION                                       TOTAL-FORCE (eV/Angst)
      0.00000      0.00000      0.00000        -0.000001     -0.000000     -0.000003
      0.00000      2.02316      2.02316        -0.000004      0.000000      0.000002
      2.02316      0.00000      2.02316         0.000002      0.000000      0.000004
      2.02316      2.02316      0.00000         0.000002     -0.000000     -0.000003
    total drift:                                0.000003     -0.000005     -0.000002

  FREE ENERGIE OF THE ION-ELECTRON SYSTEM (eV)
  free  energy   TOTEN  =       -22.70427471 eV

  energy  without entropy=      -22.48966422  energy(sigma->0) =      -22.59696947

 writing wavefunctions